p tw 37 446
0 1
0 2
0 3
0 4
0 5
0 6
0 7
0 10
0 11
0 16
0 26
0 30
0 17
0 18
0 20
0 22
0 29
0 9
0 14
0 32
0 13
0 21
0 31
0 15
0 19
0 23
0 25
0 34
0 35
0 36
1 2
1 3
1 4
1 5
1 6
1 7
1 18
1 23
1 26
1 27
1 28
1 29
1 8
1 9
1 22
1 24
1 31
1 16
1 20
1 32
1 33
1 34
2 3
2 4
2 5
2 6
2 7
2 15
2 16
2 17
2 18
2 19
2 20
2 23
2 26
2 27
2 28
2 29
2 22
2 10
2 25
2 34
2 8
2 13
2 21
2 30
2 31
3 4
3 5
3 6
3 7
3 17
3 18
3 20
3 22
3 29
3 8
3 16
3 23
4 5
4 6
4 7
4 8
4 9
4 22
4 24
4 26
4 29
4 31
4 15
4 32
4 14
4 17
4 21
4 27
4 33
4 10
4 25
4 34
4 12
4 28
4 36
5 6
5 7
5 8
5 9
5 10
5 11
5 12
5 13
5 14
5 15
5 16
5 26
5 30
5 22
5 24
5 29
5 32
5 25
5 34
5 18
5 23
5 17
5 28
5 36
6 7
6 15
6 16
6 17
6 18
6 19
6 20
6 10
6 11
6 26
6 30
6 13
6 23
6 27
6 28
6 31
6 21
7 10
7 25
7 34
7 9
7 19
7 20
7 23
7 24
7 32
7 35
7 11
7 14
7 26
7 13
7 21
7 30
7 31
7 15
7 16
8 9
8 10
8 11
8 12
8 13
8 14
8 15
8 22
8 24
8 26
8 29
8 31
8 16
8 18
8 23
9 10
9 11
9 12
9 13
9 14
9 15
9 17
9 18
9 21
9 22
9 23
9 24
9 25
9 26
9 29
9 31
9 32
9 19
9 20
9 35
9 27
9 28
9 33
9 34
10 11
10 12
10 13
10 14
10 15
10 16
10 26
10 30
10 25
10 34
10 19
10 20
10 23
10 24
10 32
10 35
10 29
10 31
11 12
11 13
11 14
11 15
11 16
11 26
11 30
11 20
11 32
11 21
11 24
11 28
11 31
11 34
11 35
11 19
11 29
12 13
12 14
12 15
12 17
12 25
12 26
12 28
12 36
13 14
13 15
13 19
13 23
13 27
13 28
13 31
13 21
13 24
13 32
13 34
13 35
13 30
13 29
13 36
14 15
14 17
14 21
14 24
14 27
14 29
14 33
14 20
14 26
14 32
14 31
14 34
14 35
14 36
15 16
15 17
15 18
15 19
15 20
15 21
15 22
15 23
15 24
15 25
15 26
15 29
15 32
15 31
15 34
15 35
15 36
16 17
16 18
16 19
16 20
16 26
16 30
16 23
16 29
16 25
17 18
17 19
17 20
17 21
17 22
17 23
17 24
17 25
17 29
17 27
17 33
17 26
17 28
17 36
18 19
18 20
18 21
18 22
18 23
18 24
18 25
18 26
18 27
18 28
18 29
19 20
19 23
19 24
19 32
19 35
19 27
19 28
19 31
19 26
19 29
19 30
19 34
19 25
20 22
20 29
20 23
20 24
20 32
20 35
20 26
20 27
20 28
20 33
20 34
20 30
20 31
21 22
21 23
21 24
21 25
21 27
21 29
21 33
21 28
21 31
21 32
21 34
21 35
21 30
22 23
22 24
22 25
22 26
22 29
22 31
22 32
23 24
23 25
23 26
23 27
23 28
23 29
23 32
23 35
23 31
23 33
23 34
24 25
24 26
24 29
24 31
24 32
24 27
24 33
24 35
24 28
24 34
25 34
25 26
25 28
25 36
26 27
26 28
26 29
26 30
26 31
26 32
26 34
26 36
27 28
27 29
27 33
27 31
27 32
27 34
28 29
28 31
28 32
28 34
28 35
28 33
28 36
29 31
29 32
29 33
29 30
29 34
29 35
29 36
30 31
30 34
31 32
31 34
31 35
31 36
32 35
32 34
32 33
33 34
34 35
34 36
35 36
